sat

(objectives
 ((bvadd PriceProv5 (bvadd PriceProv4 (bvadd PriceProv3 (bvadd PriceProv1 PriceProv2)))) (_ bv10024 32))
)
;; statistics
(
 :cnf-variables 448
 :cnf-literals 1125
 :cnf-clauses 545
 :sat-checks 8
 :sat-restarts 11
 :sat-decisions 6380
 :sat-random-decisions 3
 :sat-propagations 8105925
 :sat-theory-propagations 0
 :sat-watched-clauses-visited 8900086
 :sat-binary-watched-clauses-visited 5458033
 :sat-conflicts 1393
 :sat-theory-conflicts 0
 :theory-necessary-interface-equalities 0
 :theory-extra-interface-equalities 0
 :euf-total-calls 6892
 :euf-complete-calls 4
 :euf-conflicts 0
 :euf-implications 0
 :euf-explanations 0
 :euf-egraph-nodes-created 4260
 :euf-egraph-nodes-deleted 2804
 :euf-num-asserted-equalities 51576
 :euf-num-asserted-inequalities 21674
 :euf-num-merges 108536
 :euf-num-merges-undone 108536
 :euf-num-atoms-retold 576
 :la-total-calls 6892
 :la-complete-calls 4
 :la-conflicts 0
 :la-implications 0
 :la-explanations 0
 :la-num-equalities-split 0
 :la-num-tableau-rows 0
 :la-num-tableau-variables 0
 :bv-total-calls 6892
 :bv-complete-calls 4
 :bv-conflicts 0
 :bv-implications 0
 :bv-explanations 0
 :fp-total-calls 6892
 :fp-complete-calls 4
 :fp-conflicts 0
 :fp-implications 0
 :fp-explanations 0
 :arr-total-calls 6892
 :arr-complete-calls 4
 :arr-conflicts 0
 :arr-implications 0
 :arr-explanations 0
 :arr-write-lemmas-added 0
 :arr-row-lemmas-added 0
 :arr-ext-lemmas-added 0
 :arr-const-lemmas-added 0
 :na-total-calls 6892
 :na-complete-calls 4
 :na-conflicts 0
 :na-implications 0
 :na-explanations 0
 :na-num_nonlinear_multiplications 0
 :na-num_axiom_checks 0
 :na-num_zero_lemmas 0
 :na-num_sign_lemmas 0
 :na-num_neutral_lemmas 0
 :na-num_proportionality_lemmas 0
 :na-num_bound_lemmas 0
 :na-num_tangent_lemmas 0
 :na-num_monotonicity_lemmas 0
 :na-num_sat_checks 0
 :na-axiom_check_time 0.000
 :na-sat_check_time 0.000
 :time-seconds 1.033
 :memory-mb 30.061
)
